25
1 0 53
2 0 80
2 1 29
3 0 47
3 1 93
3 2 25
4 0 9
4 1 63
4 2 21
4 3 67
5 0 71
5 1 48
5 2 79
5 3 12
5 4 49
6 0 82
6 1 76
6 2 13
6 3 52
6 4 15
6 5 51
7 0 17
7 1 93
7 2 33
7 3 47
7 4 28
7 5 9
7 6 56
8 0 85
8 1 60
8 2 10
8 3 17
8 4 44
8 5 69
8 6 59
8 7 68
9 0 9
9 1 14
9 2 69
9 3 16
9 4 32
9 5 63
9 6 65
9 7 82
9 8 18
10 0 44
10 1 41
10 2 33
10 3 46
10 4 28
10 5 24
10 6 47
10 7 60
10 8 62
10 9 27
11 0 89
11 1 15
11 2 21
11 3 18
11 4 18
11 5 53
11 6 31
11 7 89
11 8 57
11 9 37
11 10 72
12 0 69
12 1 86
12 2 83
12 3 88
12 4 13
12 5 52
12 6 53
12 7 46
12 8 78
12 9 98
12 10 17
12 11 18
13 0 60
13 1 51
13 2 75
13 3 93
13 4 56
13 5 34
13 6 8
13 7 35
13 8 62
13 9 80
13 10 14
13 11 33
13 12 41
14 0 70
14 1 16
14 2 30
14 3 5
14 4 22
14 5 68
14 6 16
14 7 11
14 8 94
14 9 6
14 10 16
14 11 49
14 12 96
14 13 96
15 0 23
15 1 76
15 2 9
15 3 84
15 4 41
15 5 40
15 6 58
15 7 62
15 8 49
15 9 73
15 10 92
15 11 95
15 12 1
15 13 63
15 14 69
16 0 69
16 1 14
16 2 33
16 3 40
16 4 61
16 5 17
16 6 80
16 7 88
16 8 46
16 9 63
16 10 60
16 11 66
16 12 83
16 13 20
16 14 14
16 15 34
17 0 44
17 1 98
17 2 76
17 3 93
17 4 86
17 5 87
17 6 13
17 7 68
17 8 78
17 9 90
17 10 74
17 11 86
17 12 26
17 13 97
17 14 61
17 15 45
17 16 69
18 0 29
18 1 44
18 2 86
18 3 31
18 4 36
18 5 80
18 6 92
18 7 47
18 8 51
18 9 12
18 10 92
18 11 18
18 12 11
18 13 61
18 14 47
18 15 44
18 16 7
18 17 34
19 0 28
19 1 40
19 2 28
19 3 99
19 4 28
19 5 51
19 6 6
19 7 21
19 8 67
19 9 3
19 10 73
19 11 52
19 12 70
19 13 66
19 14 97
19 15 10
19 16 45
19 17 14
19 18 51
20 0 2
20 1 78
20 2 2
20 3 32
20 4 67
20 5 22
20 6 9
20 7 37
20 8 50
20 9 57
20 10 96
20 11 63
20 12 38
20 13 38
20 14 2
20 15 83
20 16 100
20 17 61
20 18 61
20 19 22
21 0 30
21 1 17
21 2 14
21 3 32
21 4 83
21 5 10
21 6 56
21 7 35
21 8 44
21 9 63
21 10 31
21 11 92
21 12 74
21 13 31
21 14 90
21 15 15
21 16 28
21 17 3
21 18 34
21 19 19
21 20 39
22 0 65
22 1 43
22 2 95
22 3 97
22 4 31
22 5 57
22 6 53
22 7 88
22 8 3
22 9 32
22 10 41
22 11 62
22 12 88
22 13 29
22 14 72
22 15 46
22 16 85
22 17 77
22 18 95
22 19 23
22 20 44
22 21 32
23 0 93
23 1 34
23 2 23
23 3 23
23 4 5
23 5 86
23 6 26
23 7 46
23 8 90
23 9 74
23 10 91
23 11 65
23 12 90
23 13 33
23 14 41
23 15 13
23 16 64
23 17 94
23 18 45
23 19 18
23 20 83
23 21 10
23 22 41
24 0 82
24 1 25
24 2 64
24 3 3
24 4 97
24 5 8
24 6 85
24 7 86
24 8 81
24 9 33
24 10 30
24 11 51
24 12 46
24 13 48
24 14 13
24 15 60
24 16 64
24 17 42
24 18 80
24 19 18
24 20 65
24 21 33
24 22 69
24 23 67
